NAME : gr48.7129.tour
COMMENT : Cost = 0_7129
COMMENT : Found by LKH [Keld Helsgaun] Thu Nov 16 16:24:23 2017
TYPE : TOUR
DIMENSION : 57
TOUR_SECTION
1
13
49
7
50
48
51
16
52
11
53
28
54
44
55
41
56
36
26
6
14
9
21
17
27
32
22
8
33
5
31
12
10
15
24
37
47
43
45
2
40
39
42
35
20
38
30
4
19
3
25
23
34
18
46
57
29
-1
EOF
